<instance format="XCSP3" type="CSP">
  <variables>
    <var id="x0"> 0 2 9 </var>
    <var id="x1"> 3 8 </var>
    <var id="x2"> 0 3 8 9 12 </var>
    <var id="x3"> 3 9 </var>
    <var id="x4"> 0 3 8 9 </var>
    <var id="x5"> 0 9 12 </var>
    <var id="x6"> 0 2 4 9 </var>
    <var id="x7"> 3 6 8 14 </var>
    <var id="x8"> 3 6 9 </var>
    <var id="x9"> 3 5 6 9 14 </var>
    <var id="x10"> 0 3 5 8 9 14 </var>
    <var id="x11"> 6 8 14 </var>
    <var id="x12"> 0 8 14 </var>
    <var id="x13"> 0 3 5 9 </var>
    <var id="x14"> 0 6 8 14 </var>
    <var id="x15"> 0 6 8 14 </var>
    <var id="x16"> 3 6 9 14 </var>
    <var id="x17"> 6..8 14 </var>
    <var id="x18"> 0 6 7 9 </var>
    <var id="x19"> 0 6 9 </var>
    <var id="x20"> 0 3 7 9 </var>
    <var id="x21"> 8 9 13 </var>
    <var id="x22"> 8 13 14 </var>
    <var id="x23"> 7 9 13 </var>
    <var id="x24"> 2 4 9 </var>
    <var id="x25"> 4 7 8 14 </var>
    <var id="x26"> 2 7 9 </var>
    <var id="x27"> 2 8 9 14 </var>
    <var id="x28"> 2 5 10 </var>
    <var id="x29"> 5 6 8 10 </var>
    <var id="x30"> 5 6 10 </var>
    <var id="x31"> 5 8 11 </var>
    <var id="x32"> 6..8 10 </var>
    <var id="x33"> 8 10 11 </var>
    <var id="x34"> 2 6 8 </var>
    <var id="x35"> 1 5 </var>
    <var id="x36"> 1 3 6 8 11 14 </var>
    <var id="x37"> 5 6 8 14 </var>
    <var id="x38"> 3 5 8 </var>
    <var id="x39"> 6 8 11 14 </var>
    <var id="x40"> 8 11 14 </var>
    <var id="x41"> 3 5 </var>
    <var id="x42"> 9 10 </var>
    <var id="x43"> 3 6 10 14 </var>
    <var id="x44"> 3 4 6 9 12 </var>
    <var id="x45"> 3 9 14 </var>
    <var id="x46"> 6 10 12 14 </var>
    <var id="x47"> 3 4 9 10 </var>
    <var id="x48"> 3 6 9 14 </var>
    <var id="x49"> 6 </var>
    <var id="x50"> 0 6 10 11 13 </var>
    <var id="x51"> 0 5 11 </var>
    <var id="x52"> 0 1 6 13 </var>
    <var id="x53"> 1 10 11 </var>
    <var id="x54"> 0 1 5 6 </var>
    <var id="x55"> 0 10 11 </var>
    <var id="x56"> 0 8 10 </var>
    <var as="x2" id="x57"/>
    <var id="x58"> 0 8 10 11 </var>
    <var id="x59"> 8 10 12 </var>
    <var id="x60"> 0 9 12 </var>
    <var id="x61"> 3 8..11 </var>
    <var id="x62"> 0 3 8 9 </var>
    <var id="x63"> 8 12 </var>
    <var id="x64"> 6 7 12 </var>
    <var id="x65"> 1 6 10 14 </var>
    <var id="x66"> 6..8 10 12 14 </var>
    <var id="x67"> 1 6 7 12 </var>
    <var id="x68"> 1 6 </var>
    <var id="x69"> 7 8 10 14 </var>
    <var id="x70"> 0 1 9 10 13 </var>
    <var id="x71"> 1 10 11 </var>
    <var id="x72"> 0 9 13 </var>
    <var id="x73"> 7 9 </var>
    <var id="x74"> 0 10 11 13 </var>
    <var id="x75"> 1 9 10 13 </var>
    <var id="x76"> 1 9..11 </var>
    <var id="x77"> 2 4 6 9 </var>
    <var id="x78"> 0 6 14 </var>
    <var id="x79"> 5 6 9 14 </var>
    <var id="x80"> 0 6 9 </var>
    <var id="x81"> 0 2 4..6 9 </var>
    <var id="x82"> 0 2 5 9 </var>
    <var id="x83"> 0 2 6 9 14 </var>
    <var id="x84"> 1 3 10 14 </var>
    <var id="x85"> 0 5 10 14 </var>
    <var id="x86"> 0 3 5 13 </var>
    <var id="x87"> 1 3 5 10 13 14 </var>
    <var id="x88"> 0 3 5 14 </var>
    <var id="x89"> 1 3 10 </var>
    <var id="x90"> 0 10 14 </var>
    <var id="x91"> 0 5 9 10 13 </var>
    <var id="x92"> 0 5 6 10 </var>
    <var id="x93"> 3 9 10 </var>
    <var id="x94"> 0 5 6 9 </var>
    <var id="x95"> 0 10 </var>
    <var id="x96"> 0 3 5 9 10 </var>
    <var id="x97"> 0 3 6 9 </var>
    <var id="x98"> 0..2 9 10 13 </var>
    <var id="x99"> 1 8 10 </var>
    <var id="x100"> 0 4 8 10 </var>
    <var id="x101"> 2 4 9 </var>
    <var id="x102"> 0 8 9 </var>
    <var id="x103"> 8 10 13 </var>
    <var id="x104"> 0 2 9 10 </var>
    <var id="x105"> 0 2 8 9 </var>
  </variables>
  <constraints>
    <group>
      <allDifferent> %... </allDifferent>
      <args> x0 x1 x2 x3 x4 x5 x6 </args>
      <args> x7 x8 x9 x10 x11 x12 x13 </args>
      <args> x14 x15 x16 x17 x18 x19 x20 </args>
      <args> x21 x22 x23 x24 x25 x26 x27 </args>
      <args> x28 x29 x30 x31 x32 x33 x34 </args>
      <args> x35 x36 x37 x38 x39 x40 x41 </args>
      <args> x42 x43 x44 x45 x46 x47 x48 </args>
      <args> x49 x50 x51 x52 x53 x54 x55 </args>
      <args> x56 x57 x58 x59 x60 x61 x62 </args>
      <args> x63 x64 x65 x66 x67 x68 x69 </args>
      <args> x70 x71 x72 x73 x74 x75 x76 </args>
      <args> x77 x78 x79 x80 x81 x82 x83 </args>
      <args> x84 x85 x86 x87 x88 x89 x90 </args>
      <args> x91 x92 x93 x94 x95 x96 x97 </args>
      <args> x98 x99 x100 x101 x102 x103 x104 x105 </args>
      <args> x0 x28 x35 x42 x70 x91 x98 </args>
      <args> x1 x7 x36 x43 x71 x84 x99 </args>
      <args> x14 x29 x37 x56 x85 x92 x100 </args>
      <args> x2 x21 x38 x57 x63 x72 x86 </args>
      <args> x8 x44 x49 x64 x73 x77 x101 </args>
      <args> x15 x22 x39 x50 x58 x74 x78 </args>
      <args> x3 x9 x16 x30 x65 x75 x79 x87 </args>
      <args> x4 x10 x31 x45 x51 x88 x102 </args>
      <args> x11 x17 x32 x46 x59 x66 x103 </args>
      <args> x5 x18 x23 x52 x60 x67 x80 </args>
      <args> x33 x47 x53 x61 x76 x89 x93 </args>
      <args> x6 x19 x24 x54 x68 x81 x94 </args>
      <args> x12 x25 x40 x55 x69 x90 x95 </args>
      <args> x13 x20 x26 x41 x82 x96 x104 </args>
      <args> x27 x34 x48 x62 x83 x97 x105 </args>
    </group>
  </constraints>
</instance>

